(declare-fun var0 () String)
(assert (str.in.re var0 (re.++ (re.union (re.union (re.* (re.union (re.* (re.* (re.+ (re.* (re.union (re.+ (re.* (re.* (re.union (re.* (re.* (re.+ (re.+ (str.to.re "444"))))) (re.* (re.+ (re.* (re.* (str.to.re "555"))))))))) (re.union (re.* (re.+ (re.union (re.* (re.union (re.union (re.* (str.to.re "66666")) (re.* (str.to.re "777"))) (re.union (re.+ (str.to.re "8888")) (re.* (str.to.re "999"))))) (re.union (re.union (re.* (re.+ (str.to.re "aaa"))) (re.+ (re.union (str.to.re "bbb") (str.to.re "cccc")))) (re.* (re.* (re.union (str.to.re "ddd") (str.to.re "eee")))))))) (re.+ (re.union (re.* (re.union (re.union (re.* (re.* (str.to.re "fffff"))) (re.union (re.* (str.to.re "ggggg")) (re.union (str.to.re "hhhhh") (str.to.re "ii")))) (re.union (re.union (re.union (str.to.re "jj") (str.to.re "kkkkk")) (re.union (str.to.re "lll") (str.to.re "mmm"))) (re.+ (re.union (str.to.re "nn") (str.to.re "oo")))))) (re.union (re.union (re.union (re.* (re.* (str.to.re "pp"))) (re.* (re.* (str.to.re "qqqqq")))) (re.union (re.+ (re.* (str.to.re "rrrrr"))) (re.* (re.* (str.to.re "sss"))))) (re.union (re.union (re.* (re.union (str.to.re "tt") (str.to.re "uuu"))) (re.union (re.+ (str.to.re "vv")) (re.union (str.to.re "www") (str.to.re "xxx")))) (re.+ (re.+ (re.+ (str.to.re "yyyy")))))))))))))) (re.+ (re.* (re.* (re.union (re.union (re.* (re.union (re.union (re.union (re.* (re.+ (re.+ (re.+ (str.to.re "zzzzz"))))) (re.* (re.union (re.+ (re.+ (str.to.re "AAAA"))) (re.+ (re.union (str.to.re "BB") (str.to.re "CCC")))))) (re.union (re.* (re.* (re.* (re.union (str.to.re "DDDDD") (str.to.re "EEE"))))) (re.+ (re.+ (re.* (re.union (str.to.re "FFF") (str.to.re "GGGGG"))))))) (re.* (re.union (re.* (re.union (re.+ (re.* (str.to.re "HHHHH"))) (re.+ (re.* (str.to.re "III"))))) (re.+ (re.union (re.union (re.* (str.to.re "JJJJ")) (re.union (str.to.re "KK") (str.to.re "LLL"))) (re.+ (re.+ (str.to.re "MMMM"))))))))) (re.union (re.union (re.* (re.union (re.union (re.* (re.union (re.union (str.to.re "NNNN") (str.to.re "OOOO")) (re.+ (str.to.re "PPPPP")))) (re.union (re.* (re.+ (str.to.re "QQQQQ"))) (re.* (re.* (str.to.re "RRRRR"))))) (re.union (re.* (re.union (re.union (str.to.re "SSS") (str.to.re "TTTTT")) (re.+ (str.to.re "UUUUU")))) (re.union (re.* (re.* (str.to.re "VVVVV"))) (re.* (re.+ (str.to.re "WWWWW"))))))) (re.union (re.union (re.* (re.* (re.* (re.* (str.to.re "XXXX"))))) (re.* (re.* (re.union (re.+ (str.to.re "YYY")) (re.union (str.to.re "ZZZ") (str.to.re "!!!!!")))))) (re.union (re.+ (re.+ (re.union (re.+ (str.to.re """""")) (re.+ (str.to.re "###"))))) (re.+ (re.* (re.union (re.union (str.to.re "$$$$$") (str.to.re "%%")) (re.* (str.to.re "&&&&")))))))) (re.* (re.+ (re.union (re.* (re.+ (re.union (re.union (str.to.re "'''") (str.to.re "((((")) (re.union (str.to.re ")))))") (str.to.re "****"))))) (re.union (re.union (re.* (re.+ (str.to.re "+++++"))) (re.* (re.+ (str.to.re ",,,,,")))) (re.+ (re.+ (re.* (str.to.re "--")))))))))) (re.union (re.union (re.union (re.union (re.+ (re.union (re.+ (re.union (re.+ (str.to.re "....")) (re.* (str.to.re "////")))) (re.+ (re.+ (re.union (str.to.re "::") (str.to.re ";;;;;")))))) (re.* (re.* (re.* (re.union (re.union (str.to.re "<<") (str.to.re "====")) (re.union (str.to.re ">>>>>") (str.to.re "????"))))))) (re.union (re.* (re.* (re.* (re.* (re.* (str.to.re "@@")))))) (re.union (re.* (re.* (re.union (re.+ (str.to.re "[[[")) (re.* (str.to.re "\\\\\\\\\\"))))) (re.* (re.+ (re.union (re.* (str.to.re "]]]]")) (re.+ (str.to.re "^^^^")))))))) (re.* (re.+ (re.union (re.union (re.* (re.+ (re.* (str.to.re "__")))) (re.union (re.* (re.+ (str.to.re "``"))) (re.* (re.* (str.to.re "{{"))))) (re.+ (re.* (re.* (re.* (str.to.re "|||||"))))))))) (re.+ (re.* (re.+ (re.* (re.union (re.+ (re.* (re.+ (str.to.re "}}}")))) (re.* (re.union (re.* (str.to.re "~~~~")) (re.* (str.to.re "0000")))))))))))))))) (re.* (re.+ (re.union (re.* (re.* (re.* (re.union (re.union (re.+ (re.+ (re.+ (re.+ (re.union (re.+ (re.union (str.to.re "11") (str.to.re "2222"))) (re.union (re.union (str.to.re "3333") (str.to.re "444")) (re.* (str.to.re "5555")))))))) (re.* (re.union (re.* (re.union (re.* (re.union (re.union (str.to.re "66") (str.to.re "777")) (re.+ (str.to.re "88")))) (re.+ (re.+ (re.+ (str.to.re "99")))))) (re.union (re.+ (re.* (re.+ (re.union (str.to.re "aaaaa") (str.to.re "bbb"))))) (re.+ (re.+ (re.union (re.* (str.to.re "cccc")) (re.+ (str.to.re "ddd"))))))))) (re.* (re.* (re.* (re.+ (re.+ (re.union (re.+ (re.* (str.to.re "eee"))) (re.* (re.+ (str.to.re "fff"))))))))))))) (re.union (re.union (re.union (re.union (re.+ (re.union (re.union (re.* (re.+ (re.union (re.* (re.* (str.to.re "gggg"))) (re.+ (re.union (str.to.re "hhh") (str.to.re "iiiii")))))) (re.* (re.+ (re.union (re.* (re.* (str.to.re "jjj"))) (re.union (re.+ (str.to.re "kk")) (re.union (str.to.re "ll") (str.to.re "mmm"))))))) (re.+ (re.* (re.+ (re.+ (re.* (re.union (str.to.re "nnn") (str.to.re "ooo"))))))))) (re.+ (re.union (re.* (re.+ (re.* (re.+ (re.union (re.union (str.to.re "pp") (str.to.re "qqqqq")) (re.* (str.to.re "rrr"))))))) (re.+ (re.+ (re.union (re.* (re.+ (re.* (str.to.re "sssss")))) (re.* (re.* (re.+ (str.to.re "tt")))))))))) (re.* (re.* (re.* (re.* (re.+ (re.* (re.union (re.* (re.+ (str.to.re "uuuu"))) (re.union (re.+ (str.to.re "vvvv")) (re.* (str.to.re "wwww"))))))))))) (re.+ (re.union (re.+ (re.union (re.+ (re.union (re.+ (re.+ (re.* (re.* (str.to.re "xxxxx"))))) (re.union (re.* (re.* (re.+ (str.to.re "yyy")))) (re.union (re.union (re.+ (str.to.re "zzzz")) (re.* (str.to.re "AAAA"))) (re.union (re.* (str.to.re "BBB")) (re.+ (str.to.re "CCC"))))))) (re.+ (re.union (re.union (re.+ (re.union (re.+ (str.to.re "DDDDD")) (re.* (str.to.re "EEE")))) (re.* (re.+ (re.* (str.to.re "FFF"))))) (re.union (re.* (re.* (re.union (str.to.re "GGGG") (str.to.re "HHHH")))) (re.* (re.union (re.union (str.to.re "II") (str.to.re "JJJJJ")) (re.union (str.to.re "KKKK") (str.to.re "LLLL"))))))))) (re.* (re.* (re.union (re.union (re.union (re.+ (re.+ (re.* (str.to.re "MMMMM")))) (re.* (re.union (re.+ (str.to.re "NNN")) (re.* (str.to.re "OOO"))))) (re.* (re.+ (re.+ (re.union (str.to.re "PPPPP") (str.to.re "QQQ")))))) (re.* (re.union (re.+ (re.+ (re.union (str.to.re "RR") (str.to.re "SS")))) (re.union (re.union (re.* (str.to.re "TTT")) (re.union (str.to.re "UUUUU") (str.to.re "VV"))) (re.union (re.* (str.to.re "WW")) (re.union (str.to.re "XXX") (str.to.re "YYYYY")))))))))))) (re.+ (re.+ (re.union (re.+ (re.* (re.* (re.* (re.+ (re.* (re.* (re.* (str.to.re "ZZZZZ"))))))))) (re.union (re.* (re.union (re.union (re.* (re.union (re.+ (re.* (str.to.re "!!!!"))) (re.+ (re.+ (str.to.re """"""""""))))) (re.* (re.+ (re.+ (re.union (str.to.re "###") (str.to.re "$$$$")))))) (re.* (re.* (re.+ (re.* (re.union (str.to.re "%%%%") (str.to.re "&&")))))))) (re.union (re.* (re.* (re.+ (re.* (re.union (re.union (str.to.re "''") (str.to.re "((((")) (re.union (str.to.re ")))))") (str.to.re "***"))))))) (re.union (re.+ (re.+ (re.* (re.+ (re.union (str.to.re "+++") (str.to.re ",,,,,")))))) (re.union (re.union (re.union (re.+ (re.union (str.to.re "-----") (str.to.re "..."))) (re.+ (re.+ (str.to.re "////")))) (re.* (re.* (re.+ (str.to.re "::::"))))) (re.union (re.+ (re.union (re.+ (str.to.re ";;;;")) (re.union (str.to.re "<<") (str.to.re "==")))) (re.union (re.union (re.union (str.to.re ">>>") (str.to.re "????")) (re.union (str.to.re "@@@@@") (str.to.re "[[["))) (re.+ (re.+ (str.to.re "\\\\\\\\"))))))))))))))))) (re.union (re.union (re.union (re.* (re.+ (re.* (re.union (re.* (re.+ (re.* (re.union (re.+ (re.+ (re.+ (re.union (re.+ (str.to.re "]]")) (re.+ (str.to.re "^^^^^")))))) (re.+ (re.union (re.+ (re.union (re.* (str.to.re "___")) (re.+ (str.to.re "````")))) (re.union (re.* (re.* (str.to.re "{{"))) (re.union (re.+ (str.to.re "|||||")) (re.union (str.to.re "}}}}") (str.to.re "~~~~~")))))))))) (re.+ (re.+ (re.+ (re.union (re.+ (re.* (re.+ (re.+ (re.union (str.to.re "00000") (str.to.re "1111")))))) (re.+ (re.union (re.* (re.union (re.* (str.to.re "22222")) (re.+ (str.to.re "3333")))) (re.union (re.* (re.union (str.to.re "44") (str.to.re "55"))) (re.+ (re.+ (str.to.re "66666")))))))))))))) (re.+ (re.union (re.union (re.union (re.+ (re.* (re.+ (re.* (re.* (re.union (re.union (re.union (re.* (str.to.re "777")) (re.union (str.to.re "8888") (str.to.re "99"))) (re.+ (re.+ (str.to.re "aa")))) (re.union (re.* (re.union (str.to.re "bb") (str.to.re "cccc"))) (re.union (re.union (str.to.re "ddd") (str.to.re "ee")) (re.union (str.to.re "ffff") (str.to.re "gggg")))))))))) (re.union (re.* (re.* (re.union (re.+ (re.union (re.+ (re.* (re.* (str.to.re "hh")))) (re.+ (re.+ (re.+ (str.to.re "iiiii")))))) (re.* (re.* (re.union (re.+ (re.* (str.to.re "jjjj"))) (re.+ (re.+ (str.to.re "kkkkk"))))))))) (re.+ (re.+ (re.union (re.+ (re.* (re.+ (re.* (re.+ (str.to.re "llll")))))) (re.* (re.union (re.union (re.* (re.union (str.to.re "mm") (str.to.re "nn"))) (re.union (re.+ (str.to.re "oo")) (re.+ (str.to.re "ppppp")))) (re.+ (re.+ (re.+ (str.to.re "qqq"))))))))))) (re.union (re.* (re.+ (re.+ (re.union (re.+ (re.union (re.* (re.union (re.union (str.to.re "rrrrr") (str.to.re "sss")) (re.+ (str.to.re "tt")))) (re.union (re.* (re.union (str.to.re "uuuuu") (str.to.re "vvvvv"))) (re.+ (re.+ (str.to.re "ww")))))) (re.+ (re.union (re.union (re.+ (re.union (str.to.re "xxx") (str.to.re "yyyy"))) (re.union (re.+ (str.to.re "zzzz")) (re.+ (str.to.re "AA")))) (re.+ (re.union (re.+ (str.to.re "BBB")) (re.* (str.to.re "CC")))))))))) (re.* (re.* (re.+ (re.* (re.+ (re.union (re.* (re.+ (re.+ (str.to.re "DDDD")))) (re.union (re.+ (re.+ (str.to.re "EEEEE"))) (re.union (re.* (str.to.re "FFF")) (re.* (str.to.re "GGGGG")))))))))))) (re.union (re.+ (re.* (re.+ (re.* (re.* (re.+ (re.* (re.union (re.union (re.+ (str.to.re "HHHH")) (re.union (str.to.re "IIIII") (str.to.re "JJJ"))) (re.union (re.* (str.to.re "KK")) (re.+ (str.to.re "LLLL"))))))))))) (re.union (re.+ (re.* (re.+ (re.* (re.+ (re.+ (re.union (re.union (re.+ (str.to.re "MM")) (re.* (str.to.re "NNNNN"))) (re.* (re.* (str.to.re "OOOOO")))))))))) (re.union (re.+ (re.+ (re.* (re.union (re.union (re.* (re.* (re.* (str.to.re "PPPPP")))) (re.union (re.union (re.union (str.to.re "QQ") (str.to.re "RRRRR")) (re.+ (str.to.re "SSSSS"))) (re.+ (re.+ (str.to.re "TTTT"))))) (re.+ (re.* (re.+ (re.+ (str.to.re "UUUUU"))))))))) (re.+ (re.* (re.* (re.union (re.+ (re.+ (re.+ (re.+ (str.to.re "VVV"))))) (re.+ (re.union (re.union (re.+ (str.to.re "WWWW")) (re.union (str.to.re "XXX") (str.to.re "YYYY"))) (re.* (re.union (str.to.re "ZZZ") (str.to.re "!!"))))))))))))))) (re.+ (re.union (re.* (re.* (re.* (re.* (re.+ (re.union (re.* (re.* (re.union (re.* (re.+ (re.+ (str.to.re """""""""")))) (re.+ (re.union (re.* (str.to.re "#####")) (re.+ (str.to.re "$$$$$"))))))) (re.union (re.union (re.* (re.union (re.+ (re.* (str.to.re "%%%%"))) (re.+ (re.union (str.to.re "&&&&") (str.to.re "'''"))))) (re.+ (re.union (re.union (re.+ (str.to.re "((((")) (re.+ (str.to.re "))"))) (re.union (re.* (str.to.re "****")) (re.+ (str.to.re "++")))))) (re.* (re.+ (re.+ (re.union (re.* (str.to.re ",,")) (re.* (str.to.re "---"))))))))))))) (re.* (re.union (re.* (re.+ (re.* (re.union (re.union (re.+ (re.* (re.* (re.* (re.union (str.to.re "....") (str.to.re "//")))))) (re.* (re.+ (re.union (re.union (re.* (str.to.re ":::")) (re.* (str.to.re ";;;;;"))) (re.union (re.+ (str.to.re "<<")) (re.* (str.to.re "=="))))))) (re.union (re.* (re.* (re.+ (re.+ (re.* (str.to.re ">>")))))) (re.* (re.union (re.union (re.* (re.+ (str.to.re "?????"))) (re.union (re.* (str.to.re "@@@@")) (re.union (str.to.re "[[[") (str.to.re "\\\\\\\\")))) (re.union (re.union (re.+ (str.to.re "]]]")) (re.* (str.to.re "^^^^^"))) (re.+ (re.+ (str.to.re "____"))))))))))) (re.* (re.* (re.* (re.union (re.* (re.+ (re.+ (re.+ (re.+ (re.+ (str.to.re "```"))))))) (re.+ (re.* (re.union (re.+ (re.+ (re.* (str.to.re "{{{")))) (re.union (re.union (re.* (str.to.re "|||")) (re.* (str.to.re "}}"))) (re.+ (re.+ (str.to.re "~~")))))))))))))))) (re.+ (re.+ (re.* (re.+ (re.* (re.+ (re.* (re.union (re.* (re.* (re.union (re.* (re.* (re.union (re.+ (str.to.re "0000")) (re.union (str.to.re "11111") (str.to.re "222"))))) (re.union (re.* (re.* (re.union (str.to.re "33") (str.to.re "444")))) (re.+ (re.* (re.* (str.to.re "55")))))))) (re.* (re.+ (re.union (re.union (re.* (re.union (re.union (str.to.re "6666") (str.to.re "7777")) (re.union (str.to.re "88888") (str.to.re "9999")))) (re.union (re.* (re.* (str.to.re "aaa"))) (re.+ (re.* (str.to.re "bb"))))) (re.+ (re.* (re.union (re.+ (str.to.re "cc")) (re.* (str.to.re "ddd")))))))))))))))))) (re.union (re.* (re.union (re.+ (re.* (re.* (re.+ (re.+ (re.* (re.* (re.* (re.* (re.* (re.* (re.* (re.union (re.+ (str.to.re "00")) (re.+ (str.to.re "1111"))))))))))))))) (re.union (re.union (re.* (re.* (re.+ (re.* (re.* (re.+ (re.* (re.* (re.union (re.union (re.+ (re.+ (str.to.re "22222"))) (re.union (re.union (str.to.re "33333") (str.to.re "44444")) (re.+ (str.to.re "55555")))) (re.* (re.union (re.union (str.to.re "66") (str.to.re "7777")) (re.union (str.to.re "88") (str.to.re "99"))))))))))))) (re.+ (re.* (re.union (re.* (re.union (re.* (re.union (re.union (re.+ (re.+ (re.+ (re.* (str.to.re "aaaa"))))) (re.union (re.* (re.+ (re.+ (str.to.re "bbb")))) (re.+ (re.* (re.+ (str.to.re "cc")))))) (re.union (re.+ (re.union (re.+ (re.* (str.to.re "dddd"))) (re.union (re.union (str.to.re "eee") (str.to.re "ffff")) (re.union (str.to.re "ggggg") (str.to.re "hhh"))))) (re.* (re.+ (re.* (re.* (str.to.re "iiiii")))))))) (re.* (re.union (re.union (re.+ (re.union (re.+ (re.* (str.to.re "jj"))) (re.union (re.* (str.to.re "kk")) (re.+ (str.to.re "lllll"))))) (re.+ (re.union (re.* (re.union (str.to.re "mmmmm") (str.to.re "nnn"))) (re.union (re.* (str.to.re "oooo")) (re.union (str.to.re "pppp") (str.to.re "qqqqq")))))) (re.+ (re.union (re.union (re.+ (re.+ (str.to.re "rrrr"))) (re.union (re.+ (str.to.re "sss")) (re.+ (str.to.re "tttt")))) (re.* (re.union (re.union (str.to.re "uu") (str.to.re "vvvvv")) (re.+ (str.to.re "wwwww")))))))))) (re.* (re.+ (re.union (re.+ (re.* (re.* (re.union (re.* (re.* (str.to.re "xxx"))) (re.union (re.* (str.to.re "yyyyy")) (re.+ (str.to.re "zzzzz"))))))) (re.* (re.* (re.union (re.* (re.* (re.* (str.to.re "AAAAA")))) (re.+ (re.* (re.union (str.to.re "BBBB") (str.to.re "CCCC")))))))))))))) (re.union (re.union (re.union (re.+ (re.union (re.* (re.* (re.* (re.+ (re.* (re.union (re.union (re.union (str.to.re "DDDD") (str.to.re "EEE")) (re.* (str.to.re "FF"))) (re.* (re.+ (str.to.re "GGG"))))))))) (re.* (re.* (re.union (re.union (re.+ (re.* (re.union (re.* (str.to.re "HHH")) (re.+ (str.to.re "II"))))) (re.union (re.union (re.+ (re.* (str.to.re "JJ"))) (re.+ (re.+ (str.to.re "KK")))) (re.union (re.* (re.+ (str.to.re "LLL"))) (re.union (re.union (str.to.re "MMMMM") (str.to.re "NNNNN")) (re.* (str.to.re "OOOOO")))))) (re.* (re.* (re.* (re.+ (re.+ (str.to.re "PPP"))))))))))) (re.+ (re.* (re.* (re.+ (re.* (re.* (re.* (re.* (re.+ (re.* (str.to.re "QQ")))))))))))) (re.* (re.* (re.+ (re.union (re.* (re.union (re.+ (re.* (re.union (re.union (re.+ (str.to.re "RR")) (re.union (str.to.re "SSSS") (str.to.re "TTT"))) (re.union (re.* (str.to.re "UU")) (re.+ (str.to.re "VVVV")))))) (re.union (re.+ (re.* (re.+ (re.+ (str.to.re "WWW"))))) (re.* (re.+ (re.+ (re.+ (str.to.re "XXXX")))))))) (re.* (re.* (re.union (re.+ (re.* (re.* (re.+ (str.to.re "YYY"))))) (re.* (re.+ (re.union (re.union (str.to.re "ZZZZ") (str.to.re "!!!")) (re.union (str.to.re """""""""") (str.to.re "####"))))))))))))) (re.union (re.+ (re.+ (re.union (re.union (re.* (re.union (re.* (re.* (re.+ (re.* (re.union (str.to.re "$$$$$") (str.to.re "%%%")))))) (re.+ (re.* (re.union (re.* (re.union (str.to.re "&&&&") (str.to.re "''"))) (re.* (re.+ (str.to.re "(((((")))))))) (re.union (re.union (re.* (re.union (re.* (re.* (re.+ (str.to.re "))")))) (re.union (re.union (re.union (str.to.re "****") (str.to.re "++")) (re.+ (str.to.re ",,,,,"))) (re.* (re.* (str.to.re "---")))))) (re.* (re.+ (re.+ (re.union (re.union (str.to.re "..") (str.to.re "////")) (re.* (str.to.re "::::"))))))) (re.+ (re.+ (re.+ (re.union (re.+ (re.+ (str.to.re ";;;;;"))) (re.* (re.union (str.to.re "<<") (str.to.re "=="))))))))) (re.+ (re.union (re.* (re.+ (re.union (re.union (re.+ (re.+ (str.to.re ">>>>>"))) (re.* (re.* (str.to.re "??")))) (re.* (re.* (re.* (str.to.re "@@@"))))))) (re.+ (re.* (re.+ (re.union (re.union (re.* (str.to.re "[[[[[")) (re.+ (str.to.re "\\\\\\"))) (re.* (re.* (str.to.re "]]")))))))))))) (re.+ (re.union (re.+ (re.+ (re.union (re.* (re.+ (re.* (re.union (re.* (re.union (str.to.re "^^^") (str.to.re "____"))) (re.* (re.+ (str.to.re "````"))))))) (re.* (re.+ (re.* (re.* (re.* (re.union (str.to.re "{{{") (str.to.re "||||")))))))))) (re.* (re.+ (re.* (re.+ (re.union (re.+ (re.* (re.union (re.union (str.to.re "}}}}") (str.to.re "~~~")) (re.+ (str.to.re "00"))))) (re.* (re.* (re.* (re.union (str.to.re "11") (str.to.re "2222"))))))))))))))))) (re.+ (re.* (re.union (re.union (re.+ (re.* (re.union (re.union (re.union (re.union (re.union (re.* (re.+ (re.union (re.+ (re.+ (str.to.re "3333"))) (re.* (re.+ (str.to.re "4444")))))) (re.* (re.* (re.* (re.+ (re.union (str.to.re "5555") (str.to.re "66"))))))) (re.+ (re.* (re.* (re.* (re.union (re.union (str.to.re "77777") (str.to.re "888")) (re.* (str.to.re "99999")))))))) (re.union (re.union (re.+ (re.* (re.* (re.* (re.* (str.to.re "aaa")))))) (re.* (re.+ (re.+ (re.* (re.* (str.to.re "bbb"))))))) (re.+ (re.+ (re.* (re.union (re.union (re.* (str.to.re "ccccc")) (re.+ (str.to.re "ddddd"))) (re.+ (re.+ (str.to.re "ee"))))))))) (re.union (re.+ (re.+ (re.* (re.+ (re.+ (re.* (re.union (str.to.re "fffff") (str.to.re "gggg")))))))) (re.* (re.+ (re.union (re.+ (re.* (re.+ (re.+ (str.to.re "hh"))))) (re.union (re.* (re.union (re.+ (str.to.re "iiii")) (re.* (str.to.re "jjjjj")))) (re.+ (re.+ (re.union (str.to.re "kk") (str.to.re "ll")))))))))) (re.* (re.union (re.+ (re.* (re.* (re.union (re.* (re.* (re.* (str.to.re "mmmm")))) (re.* (re.* (re.* (str.to.re "nn")))))))) (re.union (re.+ (re.* (re.* (re.* (re.+ (re.* (str.to.re "oooo"))))))) (re.union (re.union (re.* (re.+ (re.union (re.+ (str.to.re "pppp")) (re.union (str.to.re "qqq") (str.to.re "rr"))))) (re.+ (re.union (re.* (re.* (str.to.re "ss"))) (re.+ (re.* (str.to.re "tttt")))))) (re.* (re.+ (re.+ (re.+ (re.+ (str.to.re "uu"))))))))))))) (re.* (re.+ (re.union (re.* (re.* (re.+ (re.union (re.union (re.* (re.* (re.union (re.union (str.to.re "vvvv") (str.to.re "ww")) (re.+ (str.to.re "xxxxx"))))) (re.* (re.union (re.* (re.+ (str.to.re "yyy"))) (re.union (re.union (str.to.re "zzzz") (str.to.re "AA")) (re.union (str.to.re "BBB") (str.to.re "CCCC")))))) (re.union (re.union (re.union (re.+ (re.+ (str.to.re "DDDDD"))) (re.union (re.union (str.to.re "EE") (str.to.re "FFFFF")) (re.+ (str.to.re "GGGGG")))) (re.+ (re.* (re.* (str.to.re "HHHHH"))))) (re.union (re.* (re.union (re.+ (str.to.re "II")) (re.* (str.to.re "JJJ")))) (re.* (re.* (re.union (str.to.re "KKK") (str.to.re "LLLLL")))))))))) (re.+ (re.* (re.* (re.union (re.union (re.union (re.union (re.+ (re.+ (str.to.re "MM"))) (re.+ (re.* (str.to.re "NNNNN")))) (re.* (re.* (re.union (str.to.re "OO") (str.to.re "PPPP"))))) (re.* (re.union (re.* (re.* (str.to.re "QQQQQ"))) (re.+ (re.union (str.to.re "RRRRR") (str.to.re "SSSS")))))) (re.+ (re.union (re.union (re.* (re.* (str.to.re "TTTT"))) (re.+ (re.union (str.to.re "UU") (str.to.re "VVVV")))) (re.union (re.* (re.union (str.to.re "WWW") (str.to.re "XXXX"))) (re.union (re.* (str.to.re "YYYY")) (re.* (str.to.re "ZZZZ")))))))))))))) (re.union (re.+ (re.union (re.union (re.+ (re.+ (re.union (re.union (re.* (re.+ (re.+ (re.* (re.union (str.to.re "!!") (str.to.re """""""")))))) (re.* (re.* (re.+ (re.+ (re.+ (str.to.re "#####"))))))) (re.union (re.* (re.* (re.union (re.union (re.* (str.to.re "$$$$")) (re.union (str.to.re "%%%") (str.to.re "&&&&&"))) (re.union (re.union (str.to.re "''") (str.to.re "(((")) (re.+ (str.to.re "))))")))))) (re.union (re.union (re.+ (re.+ (re.union (str.to.re "*****") (str.to.re "++++")))) (re.union (re.+ (re.+ (str.to.re ",,,"))) (re.* (re.+ (str.to.re "--"))))) (re.* (re.+ (re.+ (re.+ (str.to.re ".....")))))))))) (re.+ (re.* (re.* (re.+ (re.+ (re.union (re.* (re.union (re.+ (str.to.re "//")) (re.+ (str.to.re "::::")))) (re.+ (re.+ (re.+ (str.to.re ";;;"))))))))))) (re.* (re.union (re.* (re.+ (re.* (re.* (re.+ (re.union (re.union (re.+ (str.to.re "<<<")) (re.+ (str.to.re "==="))) (re.union (re.* (str.to.re ">>>>")) (re.union (str.to.re "??") (str.to.re "@@"))))))))) (re.* (re.union (re.* (re.+ (re.+ (re.+ (re.* (re.+ (str.to.re "[[[[["))))))) (re.* (re.union (re.* (re.union (re.union (re.+ (str.to.re "\\\\\\")) (re.* (str.to.re "]]]]]"))) (re.+ (re.+ (str.to.re "^^"))))) (re.+ (re.union (re.+ (re.+ (str.to.re "__"))) (re.* (re.+ (str.to.re "````"))))))))))))) (re.+ (re.+ (re.* (re.+ (re.+ (re.* (re.* (re.+ (re.union (re.+ (re.* (re.* (str.to.re "{{{{")))) (re.union (re.union (re.union (str.to.re "||||") (str.to.re "}}")) (re.union (str.to.re "~~~~~") (str.to.re "00"))) (re.union (re.* (str.to.re "111")) (re.union (str.to.re "22") (str.to.re "3333")))))))))))))))))))))
(assert (<= 15 (str.len var0)))
(check-sat)